LAMMPS (8 Feb 2023)
OMP_NUM_THREADS environment is not set. Defaulting to 1 thread. (../comm.cpp:98)
  using 1 OpenMP thread(s) per MPI task
# reference: https://docs.lammps.org/Howto_spc.html
units real
atom_style full
region box block -8 8 -8 8 -8 8
create_box 2 box  bond/types 1 angle/types 1                 extra/bond/per/atom 2 extra/angle/per/atom 1 extra/special/per/atom 2
Created orthogonal box = (-8 -8 -8) to (8 8 8)
  2 by 2 by 2 MPI processor grid

# water
mass 1 15.9994 	# oxygen
mass 2 1.008	# hydrogen

# potential energy
pair_style lj/cut/coul/cut 10.0
pair_coeff 1 1 0.1553 3.166
pair_coeff 1 2 0.0    1.0
pair_coeff 2 2 0.0    1.0

bond_style zero
bond_coeff 1 1.0

angle_style zero
angle_coeff 1 109.47

# prepare water molecules
molecule water spce.mol
Read molecule template water:
  1 molecules
  0 fragments
  3 atoms with max type 2
  2 bonds with max type 1
  1 angles with max type 1
  0 dihedrals with max type 0
  0 impropers with max type 0
variable nwater	equal 100
create_atoms 0 random ${nwater} 34564 NULL mol water 21367 overlap 0.8 maxtry 100
create_atoms 0 random 100 34564 NULL mol water 21367 overlap 0.8 maxtry 100
Created 300 atoms
  using lattice units in orthogonal box = (-8 -8 -8) to (8 8 8)
  create_atoms CPU = 0.014 seconds

# simulation variable
timestep 1.0

# constraint - bond/angle
fix rigid     all shake 0.0001 10 10000 b 1 a 1
Finding SHAKE clusters ...
       0 = # of size 2 clusters
       0 = # of size 3 clusters
       0 = # of size 4 clusters
     100 = # of frozen angles
  find clusters CPU = 0.001 seconds

# minimization
#minimize 0.0 0.0 1000 10000
minimize 0.0 1.0e-8 1000 100000
Generated 0 of 1 mixed pair_coeff terms from geometric mixing rule
WARNING: Using fix shake with minimization.
  Substituting constraints with harmonic restraint forces using kbond=1987 (../fix_shake.cpp:358)
Neighbor list info ...
  update: every = 1 steps, delay = 0 steps, check = yes
  max neighbors/atom: 2000, page size: 100000
  master list distance cutoff = 12
  ghost atom cutoff = 12
  binsize = 6, bins = 3 3 3
  1 neighbor lists, perpetual/occasional/extra = 1 0 0
  (1) pair lj/cut/coul/cut, perpetual
      attributes: half, newton on
      pair build: half/bin/newton
      stencil: half/bin/3d
      bin: standard
Per MPI rank memory allocation (min/avg/max) = 8.646 | 8.646 | 8.646 Mbytes
   Step          Temp          E_pair         E_mol          TotEng         Press     
         0   0              11780.343      0              11780.343      839586.64    
        42   0              408.87023      0              556.78385      56039.437    
SHAKE stats (type/ave/delta/count) on step 42
Bond:   1   1.0023    0.112512         200
Angle:  1   109.26    27.0537          100
Loop time of 0.459997 on 8 procs for 42 steps with 300 atoms

93.5% CPU use with 8 MPI tasks x 1 OpenMP threads

Minimization stats:
  Stopping criterion = linesearch alpha is zero
  Energy initial, next-to-last, final = 
      11780.3428967371   556.783853780022   556.783853780022
  Force two-norm initial, final = 38527.205 1080.4516
  Force max component initial, final = 20694.671 364.73908
  Final line search alpha, max atom move = 7.9793563e-15 2.910383e-12
  Iterations, force evaluations = 42 1399

MPI task timing breakdown:
Section |  min time  |  avg time  |  max time  |%varavg| %total
---------------------------------------------------------------
Pair    | 0.17336    | 0.26431    | 0.35781    |  11.9 | 57.46
Bond    | 0.00016477 | 0.00020151 | 0.00024879 |   0.0 |  0.04
Neigh   | 0          | 0          | 0          |   0.0 |  0.00
Comm    | 0.086047   | 0.17899    | 0.269      |  14.4 | 38.91
Output  | 0          | 0          | 0          |   0.0 |  0.00
Modify  | 0.0019624  | 0.0027731  | 0.0037761  |   1.0 |  0.60
Other   |            | 0.01372    |            |       |  2.98

Nlocal:           37.5 ave          50 max          24 min
Histogram: 1 0 1 1 1 1 0 1 1 1
Nghost:         2362.5 ave        2376 max        2350 min
Histogram: 1 1 1 0 1 1 1 1 0 1
Neighs:         9855.5 ave       13635 max        6152 min
Histogram: 1 1 0 1 1 1 1 1 0 1

Total # of neighbors = 78844
Ave neighs/atom = 262.81333
Ave special neighs/atom = 2
Neighbor list builds = 0
Dangerous builds = 0

# generate velocity
velocity all create 300.0 5463576

# time evolution - nvt ensemble
fix integrate all nvt temp 300.0 300.0 100.0 #iso 1.0 1.0 100.0

thermo_style custom step temp press etotal density pe ke
thermo 1000

# short equilibration
run 100000
Generated 0 of 1 mixed pair_coeff terms from geometric mixing rule
SHAKE stats (type/ave/delta/count) on step 42
Bond:   1   1.0023    0.112512         200
Angle:  1   109.26    27.0537          100
Per MPI rank memory allocation (min/avg/max) = 7.521 | 7.521 | 7.521 Mbytes
   Step          Temp          Press          TotEng        Density         PotEng         KinEng    
        42   300            61031.785      586.82459      0.73035334     408.87023      177.95436    
      1000   311.53241     -3733.2985     -813.40274      0.73035334    -998.19791      184.79517    
      2000   282.7237       379.21725     -7.8158171      0.73035334    -175.5222       167.70638    
      3000   328.74429     -6003.435      -1272.026       0.73035334    -1467.0309      195.00493    
      4000   276.23369     -5196.0682     -901.83039      0.73035334    -1065.687       163.85663    
      5000   319.04564     -7956.4284     -1789.3795      0.73035334    -1978.6314      189.25188    
      6000   301.86959     -4046.5722     -916.25549      0.73035334    -1095.3189      179.06337    
      7000   309.08708     -6460.787      -978.97805      0.73035334    -1162.3227      183.34464    
      8000   310.34804     -7899.4632     -1335.7984      0.73035334    -1519.8911      184.09262    
      9000   307.33828     -8402.8274     -1407.8611      0.73035334    -1590.1684      182.30729    
SHAKE stats (type/ave/delta/count) on step 10000
Bond:   1   1         2.01541e-06      200
Angle:  1   109.47    0.000229149      100
     10000   301.63871     -6148.3895     -1047.726       0.73035334    -1226.6524      178.92641    
     11000   298.53825     -8385.1089     -1674.5312      0.73035334    -1851.6185      177.08728    
     12000   279.74277     -3828.7974     -665.30254      0.73035334    -831.2407       165.93815    
     13000   307.38959     -1905.1934     -422.79451      0.73035334    -605.13223      182.33772    
     14000   288.95485     -2940.9923     -740.99346      0.73035334    -912.39604      171.40259    
     15000   299.43188     -5749.74       -1093.1985      0.73035334    -1270.8159      177.61736    
     16000   288.87752     -5590.2932     -1129.5485      0.73035334    -1300.9052      171.35671    
     17000   298.99537     -5518.5348     -1201.6174      0.73035334    -1378.9759      177.35843    
     18000   321.38395     -5686.1091     -1038.9102      0.73035334    -1229.5491      190.63891    
     19000   295.76623     -8707.7959     -1751.674       0.73035334    -1927.117       175.44297    
SHAKE stats (type/ave/delta/count) on step 20000
Bond:   1   1         9.41413e-07      200
Angle:  1   109.47    7.27071e-05      100
     20000   320.89262     -3307.2267     -483.94796      0.73035334    -674.29543      190.34747    
     21000   296.43729     -10379.861     -1892.9582      0.73035334    -2068.7993      175.84103    
     22000   302.10768     -7678.4601     -1625.8191      0.73035334    -1805.0237      179.2046     
     23000   294.60694     -492.10793     -243.10858      0.73035334    -417.86388      174.7553     
     24000   297.31521     -8619.3362     -1557.2663      0.73035334    -1733.6281      176.36179    
     25000   271.15722     -9981.6092     -1834.4084      0.73035334    -1995.2538      160.84536    
     26000   278.92358     -4868.3371     -1137.3238      0.73035334    -1302.776       165.45223    
     27000   297.37948     -7455.2314     -1271.7891      0.73035334    -1448.189       176.39992    
     28000   284.6944      -11656.428     -2105.6209      0.73035334    -2274.4963      168.87537    
     29000   312.70819     -4053.243      -505.01023      0.73035334    -690.50285      185.49262    
SHAKE stats (type/ave/delta/count) on step 30000
Bond:   1   1         1.80534e-06      200
Angle:  1   109.47    0.000125222      100
     30000   295.01378      1353.6268      215.83118      0.73035334     40.834553      174.99663    
     31000   312.01739      422.25462      113.21259      0.73035334    -71.870259      185.08285    
     32000   280.73535     -583.33953     -54.347582      0.73035334    -220.87451      166.52693    
     33000   313.06811     -4284.4678     -915.71814      0.73035334    -1101.4243      185.70612    
     34000   283.59696     -9748.8212     -1904.937       0.73035334    -2073.1613      168.22439    
     35000   283.197       -3653.3678     -710.04544      0.73035334    -878.03257      167.98713    
     36000   301.85092     -6977.8714     -1216.872       0.73035334    -1395.9243      179.05229    
     37000   276.15773      615.72366      155.59074      0.73035334    -8.2208355      163.81158    
     38000   280.70156     -3825.2132     -525.23473      0.73035334    -691.74162      166.50689    
     39000   280.044       -3254.026      -671.02552      0.73035334    -837.14235      166.11684    
SHAKE stats (type/ave/delta/count) on step 40000
Bond:   1   1         3.6948e-06       200
Angle:  1   109.47    0.000197052      100
     40000   278.75787     -318.30855     -255.31405      0.73035334    -420.66797      165.35393    
     41000   300.98933     -1990.2507     -519.17242      0.73035334    -697.71363      178.54121    
     42000   304.96951     -1029.8126     -452.95474      0.73035334    -633.85691      180.90218    
     43000   276.89596     -1796.1807     -549.35903      0.73035334    -713.60851      164.24948    
     44000   291.21244     -3691.8349     -702.12846      0.73035334    -874.87021      172.74175    
     45000   305.07254     -2615.7967     -354.16488      0.73035334    -535.12818      180.96329    
     46000   288.82992     -3686.4237     -870.98566      0.73035334    -1042.3141      171.32848    
     47000   312.86429     -9807.8504     -1986.6833      0.73035334    -2172.2685      185.58522    
     48000   291.09335     -3701.4652     -865.82551      0.73035334    -1038.4966      172.6711     
     49000   296.97356     -2271.3624     -663.0915       0.73035334    -839.25064      176.15914    
SHAKE stats (type/ave/delta/count) on step 50000
Bond:   1   1         1.45701e-06      200
Angle:  1   109.47    8.61626e-05      100
     50000   316.95843      3345.2401      244.6197       0.73035334     56.605916      188.01378    
     51000   323.16511     -1279.3071     -504.51146      0.73035334    -696.20693      191.69547    
     52000   293.59335     -6262.6128     -1345.9904      0.73035334    -1520.1445      174.15405    
     53000   324.53945     -887.88876     -367.78684      0.73035334    -560.29754      192.5107     
     54000   282.76751     -412.10555     -435.95239      0.73035334    -603.68476      167.73237    
     55000   290.50693      1474.0661     -139.17058      0.73035334    -311.49383      172.32325    
     56000   292.61628     -3112.7559     -752.03914      0.73035334    -925.61362      173.57448    
     57000   326.02523      2117.716       278.2219       0.73035334     84.829862      193.39204    
     58000   271.85541      2699.1067      221.50057      0.73035334     60.241053      161.25952    
     59000   352.7533      -2358.9832     -508.9661       0.73035334    -718.21273      209.24663    
SHAKE stats (type/ave/delta/count) on step 60000
Bond:   1   1         3.30582e-06      200
Angle:  1   109.47    0.000326453      100
     60000   309.21799     -4107.0527     -1041.2595      0.73035334    -1224.6818      183.4223     
     61000   283.22482      2674.2038      218.65077      0.73035334     50.647134      168.00364    
     62000   286.47237     -2449.3061     -591.64806      0.73035334    -761.57809      169.93003    
     63000   285.35928     -2982.9603     -827.70127      0.73035334    -996.97103      169.26976    
     64000   299.17878     -2639.0372     -399.51558      0.73035334    -576.98281      177.46723    
     65000   293.03321      577.68567      35.601884      0.73035334    -138.21991      173.82179    
     66000   288.48511     -1063.9585     -372.87362      0.73035334    -543.99756      171.12394    
     67000   272.95936     -2117.2699     -482.93093      0.73035334    -644.84529      161.91436    
     68000   297.42574     -3551.1211     -825.99973      0.73035334    -1002.4271      176.42736    
     69000   280.89888     -6020.1495     -1251.9906      0.73035334    -1418.6145      166.62393    
SHAKE stats (type/ave/delta/count) on step 70000
Bond:   1   1         3.35903e-06      200
Angle:  1   109.47    0.000221543      100
     70000   312.0317      -6151.1299     -1148.8072      0.73035334    -1333.8986      185.09134    
     71000   281.48803     -1593.259      -389.38715      0.73035334    -556.36056      166.97341    
     72000   313.76242     -4847.8553     -944.17753      0.73035334    -1130.2955      186.11797    
     73000   298.54496     -5802.2477     -1146.4379      0.73035334    -1323.5292      177.09126    
     74000   290.01655     -2734.4902     -308.1744       0.73035334    -480.20676      172.03236    
     75000   269.55576     -5721.3408     -1103.1565      0.73035334    -1263.0519      159.89541    
     76000   328.34287     -5024.4222     -962.47463      0.73035334    -1157.2414      194.76682    
     77000   318.29529     -1321.3819     -590.16618      0.73035334    -778.97295      188.80678    
     78000   310.16801     -5513.9253     -1111.8896      0.73035334    -1295.8754      183.98583    
     79000   301.84651     -124.88045     -191.59072      0.73035334    -370.6404       179.04968    
SHAKE stats (type/ave/delta/count) on step 80000
Bond:   1   1         1.16999e-06      200
Angle:  1   109.47    8.12258e-05      100
     80000   274.12755     -2757.3917     -757.55313      0.73035334    -920.16044      162.60731    
     81000   349.03428     -2449.9699     -519.64         0.73035334    -726.68058      207.04057    
     82000   274.76412     -4374.2756     -758.72175      0.73035334    -921.70666      162.98491    
     83000   320.06621     -8540.3099     -1641.6561      0.73035334    -1831.5134      189.85726    
     84000   304.84835     -7035.9439     -1258.2587      0.73035334    -1439.089       180.83031    
     85000   280.67493     -6269.8092     -1100.5124      0.73035334    -1267.0034      166.49109    
     86000   311.9523      -3410.1677     -759.28256      0.73035334    -944.3268       185.04424    
     87000   294.47956     -1835.9312     -517.2675       0.73035334    -691.94724      174.67974    
     88000   314.12147     -108.42969     -338.66045      0.73035334    -524.9914       186.33095    
     89000   312.87074     -5166.801      -1235.1797      0.73035334    -1420.7687      185.58904    
SHAKE stats (type/ave/delta/count) on step 90000
Bond:   1   1         1.93172e-06      200
Angle:  1   109.47    0.000133295      100
     90000   272.53577     -2685.9371     -396.01542      0.73035334    -557.67852      161.6631     
     91000   312.44628     -4459.3912     -550.72761      0.73035334    -736.06487      185.33726    
     92000   303.76719     -4654.2528     -910.51072      0.73035334    -1090.6997      180.18899    
     93000   327.03348     -4840.0827     -867.87159      0.73035334    -1061.8617      193.99011    
     94000   314.13757     -3710.8764     -897.69109      0.73035334    -1084.0316      186.3405     
     95000   304.63156     -1761.4362     -553.69215      0.73035334    -734.39386      180.70171    
     96000   296.85228     -6701.3475     -1406.1562      0.73035334    -1582.2434      176.08719    
     97000   305.86367     -4289.2639     -915.11096      0.73035334    -1096.5435      181.43258    
     98000   268.76605     -2311.8478     -713.7111       0.73035334    -873.13807      159.42697    
     99000   313.59819     -9855.4644     -1968.404       0.73035334    -2154.4245      186.02055    
SHAKE stats (type/ave/delta/count) on step 100000
Bond:   1   1         1.51295e-06      200
Angle:  1   109.47    0.000107019      100
    100000   313.72634     -4910.7366     -1257.7654      0.73035334    -1443.862       186.09657    
    100042   303.1681      -4193.2012     -1093.6105      0.73035334    -1273.4441      179.83362    
Loop time of 22.6635 on 8 procs for 100000 steps with 300 atoms

Performance: 381.230 ns/day, 0.063 hours/ns, 4412.387 timesteps/s, 1.324 Matom-step/s
94.4% CPU use with 8 MPI tasks x 1 OpenMP threads

MPI task timing breakdown:
Section |  min time  |  avg time  |  max time  |%varavg| %total
---------------------------------------------------------------
Pair    | 6.9812     | 9.6275     | 12.11      |  50.0 | 42.48
Bond    | 0.0051551  | 0.0055303  | 0.0064754  |   0.6 |  0.02
Neigh   | 0.93448    | 0.93598    | 0.93773    |   0.1 |  4.13
Comm    | 6.1641     | 8.6058     | 11.184     |  52.0 | 37.97
Output  | 0.0018199  | 0.0018781  | 0.0022198  |   0.3 |  0.01
Modify  | 3.1834     | 3.2299     | 3.2847     |   2.2 | 14.25
Other   |            | 0.2569     |            |       |  1.13

Nlocal:           37.5 ave          51 max          29 min
Histogram: 2 1 1 1 0 1 0 1 0 1
Nghost:         2362.5 ave        2371 max        2349 min
Histogram: 1 0 1 0 0 1 1 1 1 2
Neighs:        9860.38 ave       13830 max        7810 min
Histogram: 2 2 0 1 1 1 0 0 0 1

Total # of neighbors = 78883
Ave neighs/atom = 262.94333
Ave special neighs/atom = 2
Neighbor list builds = 3329
Dangerous builds = 0
unfix integrate

# time evolution - npt ensemble
fix integrate all npt temp 300.0 300.0 100.0 iso 1.0 1.0 100.0

# short equilibration
run 200000
Generated 0 of 1 mixed pair_coeff terms from geometric mixing rule
SHAKE stats (type/ave/delta/count) on step 100042
Bond:   1   1         1.43577e-06      200
Angle:  1   109.47    0.00011186       100
Per MPI rank memory allocation (min/avg/max) = 7.521 | 7.521 | 7.521 Mbytes
   Step          Temp          Press          TotEng        Density         PotEng         KinEng    
    100042   303.1681      -4192.2885     -1093.6105      0.73035334    -1273.4441      179.83362    
    101000   286.38418      932.53008     -187.84549      0.76993772    -357.7232       169.87771    
    102000   316.81519     -80.164254     -638.00779      0.7884365     -825.9366       187.92882    
    103000   292.28912      2860.0707     -111.80574      0.79785296    -285.18615      173.38041    
    104000   329.33383     -614.17548     -241.53656      0.80849621    -436.89119      195.35463    
    105000   303.3334       3224.7037      220.32257      0.82119475     40.390901      179.93167    
    106000   307.19278     -1367.7041     -375.1967       0.8229486     -557.41769      182.22098    
    107000   318.7088       3186.9337      254.30807      0.82168815     65.256         189.05207    
    108000   298.43598      2148.9348      313.65945      0.82093287     136.63284      177.02661    
    109000   276.66094      3002.8118      140.07625      0.83312192    -24.033811      164.11007    
SHAKE stats (type/ave/delta/count) on step 110000
Bond:   1   1.00046   9.62476e-07      200
Angle:  1   109.47    6.98447e-05      100
    110000   289.08702      2326.9096      67.299551      0.82480757    -104.18143      171.48098    
    111000   314.71185     -893.32055     -393.96393      0.82398108    -580.64509      186.68115    
    112000   287.61731     -3567.1082     -958.47346      0.8417805     -1129.0826      170.60918    
    113000   324.46828     -1492.13       -723.2803       0.83512246    -915.74878      192.46849    
    114000   263.83518     -1564.9077     -652.44738      0.84121672    -808.94944      156.50207    
    115000   320.20949      2292.4243      112.22207      0.84985279    -77.720177      189.94225    
    116000   290.29027      1770.386      -11.974937      0.84506543    -184.16967      172.19473    
    117000   323.01129     -507.60938     -372.14406      0.8526741     -563.74828      191.60422    
    118000   307.2036      -1151.9818     -195.92271      0.86212248    -378.1501       182.2274     
    119000   291.94243     -903.10983     -378.18676      0.85357074    -551.36152      173.17476    
SHAKE stats (type/ave/delta/count) on step 120000
Bond:   1   0.99997   1.05005e-06      200
Angle:  1   109.47    0.000112946      100
    120000   310.62688      970.45448     -61.451738      0.86169983    -245.70976      184.25803    
    121000   296.05472      1507.1801      62.303908      0.86067149    -113.31019      175.6141     
    122000   306.64717      921.09056     -32.502759      0.8642587     -214.4001       181.89734    
    123000   303.67967     -1577.0633     -471.22161      0.86017978    -651.35868      180.13707    
    124000   317.63693      1424.5682      182.10737      0.87092561    -6.3088874      188.41625    
    125000   315.21004     -3244.8806     -773.04945      0.86126269    -960.02611      186.97667    
    126000   328.88398      2490.399       32.85113       0.87979664    -162.23666      195.08779    
    127000   269.81704     -1782.3404     -547.09473      0.8766784     -707.14513      160.0504     
    128000   324.65141     -6008.2465     -1270.4389      0.87963835    -1463.016       192.57711    
    129000   296.33312      4824.9023      312.05247      0.88418912     136.27323      175.77924    
SHAKE stats (type/ave/delta/count) on step 130000
Bond:   1   0.999882  1.414e-06        200
Angle:  1   109.47    0.000100196      100
    130000   318.49713     -1715.6591     -428.11602      0.88002415    -617.04253      188.92651    
    131000   310.81671     -1457.186      -621.05302      0.88817274    -805.42365      184.37063    
    132000   314.23397     -236.01466     -318.22666      0.8763843     -504.62434      186.39768    
    133000   297.76591      1544.2394     -189.52838      0.89001776    -366.15752      176.62914    
    134000   298.46342      1341.8773     -331.28084      0.88476762    -508.32372      177.04289    
    135000   267.94135      2298.6937     -77.125179      0.89715003    -236.06295      158.93777    
    136000   288.66355      4101.2157      457.25278      0.90209372     286.02298      171.22979    
    137000   302.9622       3719.2656      529.95231      0.88396897     350.24082      179.71148    
    138000   285.38375      899.11319      48.935621      0.88971112    -120.34866      169.28428    
    139000   310.703       -5245.8426     -922.37815      0.88637875    -1106.6813      184.30318    
SHAKE stats (type/ave/delta/count) on step 140000
Bond:   1   0.999394  1.28415e-06      200
Angle:  1   109.47    0.000126597      100
    140000   328.44415     -6142.4204     -872.39137      0.8819186     -1067.2183      194.82689    
    141000   296.11461     -6650.0252     -1241.5452      0.88926919    -1417.1948      175.64962    
    142000   288.0392      -47.966405     -168.5173       0.88886054    -339.37674      170.85944    
    143000   269.94158     -5333.9224     -687.6198       0.88500515    -847.74407      160.12427    
    144000   313.24885      6584.1227      821.54121      0.89469004     635.72788      185.81333    
    145000   301.81834      1812.8376      196.35083      0.88374622     17.317859      179.03297    
    146000   322.11247      1465.3558      154.99941      0.88383249    -36.071658      191.07106    
    147000   296.92161     -2200.1476     -319.45012      0.88794518    -495.57843      176.12832    
    148000   308.39673     -3796.7503     -588.81174      0.88369459    -771.74688      182.93514    
    149000   309.94394      6624.7222      817.44996      0.9007937      633.59704      183.85292    
SHAKE stats (type/ave/delta/count) on step 150000
Bond:   1   0.999929  1.8293e-06       200
Angle:  1   109.47    0.000141101      100
    150000   274.49447     -6285.7256     -1276.6922      0.89403001    -1439.5172      162.82496    
    151000   287.26217     -5386.9758     -940.30608      0.8868281     -1110.7046      170.39852    
    152000   296.76652      1620.1621      96.651674      0.89929591    -79.384649      176.03632    
    153000   288.27889      919.53694      24.817285      0.89334903    -146.18433      171.00162    
    154000   284.53048     -3816.0316     -786.63389      0.87928456    -955.41202      168.77813    
    155000   288.60008     -3311.0655     -803.96704      0.8943577     -975.15918      171.19214    
    156000   304.2544      -2603.5686     -418.43792      0.89671958    -598.91591      180.47799    
    157000   285.7577       586.03247     -222.77753      0.88202674    -392.28362      169.50609    
    158000   314.39165     -651.08673     -184.88308      0.89016741    -371.37429      186.49121    
    159000   300.59677     -7764.7677     -1611.9346      0.88734885    -1790.2429      178.30835    
SHAKE stats (type/ave/delta/count) on step 160000
Bond:   1   1.00004   9.0272e-07       200
Angle:  1   109.47    7.77204e-05      100
    160000   306.23749      374.32292     -264.6709       0.89133009    -446.32523      181.65432    
    161000   315.25208      4771.9508      386.1232       0.89010321     199.12159      187.0016     
    162000   310.38304      1888.9497     -72.896973      0.89810621    -257.01035      184.11338    
    163000   288.00266      3266.4579      229.70806      0.89820842     58.87029       170.83777    
    164000   328.156        2027.711       258.50355      0.88749385     63.847581      194.65597    
    165000   296.42768     -1755.7803     -353.07999      0.89933632    -528.91531      175.83533    
    166000   303.25377     -340.41733     -257.13674      0.90676627    -437.02117      179.88443    
    167000   290.17051      2139.6176      51.791754      0.89501914    -120.33194      172.12369    
    168000   296.05722      892.74179      137.53173      0.90279627    -38.083844      175.61558    
    169000   296.4901      -4917.747      -1306.736       0.89954031    -1482.6083      175.87235    
SHAKE stats (type/ave/delta/count) on step 170000
Bond:   1   0.999739  1.20611e-06      200
Angle:  1   109.47    0.000102436      100
    170000   293.33045      2037.9742      240.0435       0.90377858     66.045388      173.99811    
    171000   287.70735      1056.1706     -215.39822      0.89674469    -386.06081      170.66259    
    172000   307.13043      4278.8945      453.06511      0.90136441     270.88111      182.184      
    173000   302.81668      2709.4497      347.00879      0.89692868     167.38363      179.62516    
    174000   290.19428     -5986.2625     -1019.6217      0.89355457    -1191.7595      172.13779    
    175000   265.76228      3350.7035      311.46579      0.89618564     153.8206       157.64519    
    176000   294.84589      1511.0654      102.86518      0.89620231    -72.03186       174.89704    
    177000   323.82493      218.12743     -108.20457      0.90435203    -300.29143      192.08686    
    178000   310.39126      2522.7621      292.63525      0.89992083     108.51699      184.11826    
    179000   285.91937      2121.2006      169.96089      0.89701325     0.35889605     169.60199    
SHAKE stats (type/ave/delta/count) on step 180000
Bond:   1   1.00006   1.99117e-06      200
Angle:  1   109.47    0.000132466      100
    180000   297.56481     -6367.0618     -1149.8573      0.88747282    -1326.3672      176.50985    
    181000   305.29654      5261.1618      659.19189      0.8941115      478.09572      181.09617    
    182000   319.34735     -1866.5571     -425.07006      0.88992549    -614.5009       189.43084    
    183000   297.39967     -3377.8979     -647.96935      0.88833151    -824.38124      176.41189    
    184000   307.5176      -2348.5541     -604.6601       0.88457747    -787.07376      182.41366    
    185000   282.32225     -7312.6003     -1053.7148      0.88796312    -1221.183       167.46825    
    186000   270.23657     -5845.6797     -1116.5025      0.88777634    -1276.8017      160.29925    
    187000   323.72827      2050.8572     -8.3103718      0.8898499     -200.3399       192.02952    
    188000   302.60729     -4501.9386     -730.74937      0.88636149    -910.25033      179.50096    
    189000   292.97899     -320.6767      -257.19478      0.88405919    -430.98441      173.78963    
SHAKE stats (type/ave/delta/count) on step 190000
Bond:   1   1.00025   3.35747e-06      200
Angle:  1   109.47    0.000265881      100
    190000   301.05386     -3732.2299     -648.07047      0.87885187    -826.64996      178.57949    
    191000   317.50089      5028.6996      710.88608      0.89256964     522.55052      188.33556    
    192000   282.37343     -4839.0859     -774.97967      0.88747385    -942.47829      167.49861    
    193000   340.19761     -5044.8759     -899.48974      0.88702115    -1101.2886      201.79883    
    194000   294.87057      4025.2052      473.72565      0.89974472     298.81398      174.91168    
    195000   342.1425      -1451.0271     -358.90763      0.89575923    -561.86012      202.9525     
    196000   285.09758      5920.7938      660.67455      0.8910924      491.56003      169.11452    
    197000   284.80798     -809.15828     -259.00732      0.89158346    -427.95006      168.94274    
    198000   340.25643      1185.8404     -10.056093      0.88947064    -211.88981      201.83372    
    199000   280.36697     -4106.2631     -901.35435      0.89153933    -1067.6628      166.30842    
SHAKE stats (type/ave/delta/count) on step 200000
Bond:   1   1.00053   1.35507e-06      200
Angle:  1   109.47    9.39248e-05      100
    200000   298.96401     -1711.8176     -344.49432      0.89064228    -521.83415      177.33983    
    201000   305.43489      3795.1088      403.26112      0.89491444     222.08288      181.17823    
    202000   301.39303      1792.353       235.06643      0.89057905     56.285754      178.78068    
    203000   305.16228     -4369.4778     -738.75845      0.89306839    -919.77498      181.01653    
    204000   312.06839     -3992.953      -1041.4541      0.89067837    -1226.5672      185.1131     
    205000   279.39795      3612.4478      425.74993      0.89391318     260.01632      165.73361    
    206000   300.91866     -1302.7022     -502.99763      0.89436889    -681.49692      178.49929    
    207000   306.22341      5349.6603      533.84475      0.90543644     352.19878      181.64597    
    208000   289.35543     -7.3536182     -213.53938      0.88563718    -385.17959      171.6402     
    209000   278.36961     -1858.0235     -475.85678      0.89420749    -640.9804       165.12362    
SHAKE stats (type/ave/delta/count) on step 210000
Bond:   1   0.999916  1.61642e-06      200
Angle:  1   109.47    0.000111965      100
    210000   289.61932     -5167.255      -1178.2164      0.89976104    -1350.0131      171.79673    
    211000   311.26467      2558.7201      236.87112      0.89365582     52.234769      184.63635    
    212000   315.01471      2391.9964      150.01373      0.89162214    -36.847072      186.8608     
    213000   328.11817     -1302.5156     -343.66953      0.89587802    -538.30307      194.63353    
    214000   304.59198      3567.6775      197.79632      0.89327376     17.118086      180.67823    
    215000   270.95042      4305.7857      650.36135      0.8954159      489.63866      160.72269    
    216000   305.19828     -1744.1681     -490.82057      0.88800255    -671.85845      181.03788    
    217000   322.84645      8531.9501      1039.2421      0.90184098     847.73564      191.50645    
    218000   282.38671     -2966.8864     -733.11796      0.89471568    -900.62445      167.50649    
    219000   268.55253      5798.0991      709.85625      0.89068115     550.55594      159.30031    
SHAKE stats (type/ave/delta/count) on step 220000
Bond:   1   1.00012   1.71758e-06      200
Angle:  1   109.47    0.000142758      100
    220000   280.11416      2860.7209      100.79434      0.89752068    -65.36411       166.15845    
    221000   296.07852      6208.2364      707.38122      0.904633       531.75302      175.62821    
    222000   327.66583      7852.3434      821.57008      0.91243727     627.20487      194.36521    
    223000   279.95052     -1485.9385     -376.72089      0.88859178    -542.78227      166.06138    
    224000   278.21578      5472.1053      695.76766      0.90862671     530.73529      165.03237    
    225000   316.24032      488.25324     -2.8799632      0.90483946    -190.46778      187.58781    
    226000   273.0976       5233.3469      689.30696      0.90724659     527.3106       161.99636    
    227000   288.64145      660.78849     -178.14589      0.91017708    -349.36257      171.21668    
    228000   321.14849      2832.3593      183.18004      0.90120786    -7.3192018      190.49925    
    229000   323.6345       1902.3735      77.704796      0.90879255    -114.2691       191.9739     
SHAKE stats (type/ave/delta/count) on step 230000
Bond:   1   0.999399  3.53024e-06      200
Angle:  1   109.47    0.000199555      100
    230000   304.09935      2549.1562      428.75301      0.90642265     248.36699      180.38602    
    231000   267.27216     -3161.4911     -744.01137      0.90300753    -902.55219      158.54082    
    232000   320.30295      3703.2226      527.33349      0.90421466     337.33581      189.99769    
    233000   297.82547     -7823.7123     -1082.6574      0.89335059    -1259.3219      176.66447    
    234000   280.12742     -157.31176     -191.42393      0.90398768    -357.59026      166.16632    
    235000   315.50341     -3011.2496     -666.14351      0.89732875    -853.2942       187.15069    
    236000   309.46715     -8277.9505     -1231.5293      0.89176615    -1415.0994      183.5701     
    237000   276.21943      254.94834     -138.98165      0.89634631    -302.82982      163.84817    
    238000   348.63085      704.71858     -5.3094399      0.90770723    -212.1107       206.80126    
    239000   308.00649      5737.0768      800.00025      0.90065875     617.29659      182.70366    
SHAKE stats (type/ave/delta/count) on step 240000
Bond:   1   0.999997  2.4963e-06       200
Angle:  1   109.47    0.000251161      100
    240000   287.1454      -562.76922     -220.08066      0.90089775    -390.40991      170.32925    
    241000   318.77977      17.414361     -42.242091      0.89618867    -231.33626      189.09417    
    242000   293.06771      3800.7616      354.40705      0.91002782     180.5648       173.84225    
    243000   319.11049     -3478.1538     -869.35816      0.89576165    -1058.6485      189.29034    
    244000   298.47548     -835.37419     -215.84165      0.89143335    -392.8917       177.05004    
    245000   298.46129      111.94119     -419.05142      0.90159543    -596.09304      177.04163    
    246000   289.08141     -4787.1668     -1142.337       0.90003576    -1313.8146      171.47766    
    247000   314.14553      473.26585     -286.89845      0.90223794    -473.24367      186.34522    
    248000   302.5018       28.693208     -465.58779      0.90077262    -645.02617      179.43838    
    249000   286.37521      4603.5892      266.82168      0.9075178      96.949285      169.87239    
SHAKE stats (type/ave/delta/count) on step 250000
Bond:   1   1.00002   2.84371e-06      200
Angle:  1   109.47    0.000200754      100
    250000   312.7445      -7817.4304     -1509.3739      0.89762279    -1694.8881      185.51415    
    251000   295.72657     -2401.6854     -730.90557      0.9042425     -906.32501      175.41944    
    252000   322.46518     -1649.6857     -579.11198      0.90500268    -770.39226      191.28028    
    253000   297.22529     -3942.5062     -966.69371      0.90261832    -1143.0022      176.30846    
    254000   278.19026      361.01757     -124.41603      0.89881676    -289.43326      165.01723    
    255000   268.44158     -5375.4282     -1000.2714      0.90042982    -1159.5059      159.2345     
    256000   306.68046     -2736.7004     -824.02985      0.90112831    -1005.9469      181.91708    
    257000   273.21357      2307.4033      277.68731      0.89382805     115.62215      162.06515    
    258000   300.49591     -667.94943     -424.55516      0.89767266    -602.80368      178.24853    
    259000   265.3471       1617.3521     -8.426962       0.89554126    -165.82587      157.39891    
SHAKE stats (type/ave/delta/count) on step 260000
Bond:   1   0.999855  1.49826e-06      200
Angle:  1   109.47    0.000154891      100
    260000   288.15088     -2247.303      -628.2444       0.89330874    -799.17008      170.92568    
    261000   305.66043     -139.10804     -195.56122      0.89597329    -376.87325      181.31202    
    262000   305.02292      693.23623     -177.07656      0.8996059     -358.01043      180.93386    
    263000   285.18721     -5620.9825     -883.78028      0.8935604     -1052.948       169.16769    
    264000   290.67098     -1249.2472     -245.43635      0.89869348    -417.85691      172.42056    
    265000   306.92153     -3598.1981     -715.07445      0.893854      -897.13454      182.06008    
    266000   287.87396     -5069.4635     -873.07302      0.90085288    -1043.8344      170.76142    
    267000   306.01498     -2104.6598     -361.30522      0.90073296    -542.82755      181.52233    
    268000   290.67666      1849.2102      120.6387       0.91725896    -51.785229      172.42393    
    269000   275.61403      146.41598     -333.98595      0.90776348    -497.47501      163.48906    
SHAKE stats (type/ave/delta/count) on step 270000
Bond:   1   1.00019   1.6138e-06       200
Angle:  1   109.47    0.000101418      100
    270000   318.63848     -2940.7717     -736.51205      0.89484757    -925.52241      189.01036    
    271000   330.28442      6175.4243      598.31177      0.90736426     402.39326      195.91851    
    272000   309.30212     -1378.0787     -639.50829      0.90681168    -822.98049      183.4722     
    273000   300.59058     -2877.9647     -672.37482      0.89999478    -850.6795       178.30468    
    274000   315.9         -3838.1757     -919.66598      0.90160053    -1107.0519      187.38594    
    275000   277.61417     -2376.6092     -619.57272      0.89897462    -784.24822      164.67551    
    276000   322.82703      3331.77        272.91514      0.90250581     81.420217      191.49493    
    277000   298.47054     -601.90668     -335.90042      0.90213247    -512.94754      177.04711    
    278000   321.28661     -3803.3122     -878.56339      0.89657345    -1069.1446      190.58118    
    279000   288.75186     -5130.0198     -994.15341      0.89359904    -1165.4356      171.28218    
SHAKE stats (type/ave/delta/count) on step 280000
Bond:   1   0.999664  1.72401e-06      200
Angle:  1   109.47    0.000126991      100
    280000   309.06425      6797.7576      854.09253      0.90640597     670.76142      183.3311     
    281000   306.43826     -762.17512     -11.151861      0.90317961    -192.92527      181.77341    
    282000   309.77306      5355.5135      676.83117      0.90792088     493.07962      183.75155    
    283000   250.6412       5792.6948      503.5008       0.91018805     354.82515      148.67565    
    284000   310.09041     -3660.9836     -816.42887      0.90713105    -1000.3687      183.9398     
    285000   324.62626      3409.0904      188.37174      0.90845058    -4.1904524      192.5622     
    286000   312.74649     -2360.9847     -797.73701      0.90777433    -983.25235      185.51534    
    287000   312.59851     -3765.8243     -794.03976      0.89226102    -979.46732      185.42756    
    288000   295.39673     -4108.2349     -1067.9938      0.90561332    -1243.2176      175.22378    
    289000   300.38724      2145.015       135.07338      0.90932254    -43.110689      178.18406    
SHAKE stats (type/ave/delta/count) on step 290000
Bond:   1   0.999566  1.56776e-06      200
Angle:  1   109.47    0.000115641      100
    290000   317.06374     -1149.4794     -821.00986      0.90933102    -1009.0861      188.07625    
    291000   301.42799      5809.2897      419.18336      0.91262612     240.38194      178.80142    
    292000   339.13478     -3236.5716     -705.83141      0.9024147     -906.99978      201.16837    
    293000   310.79135     -1064.8706     -525.39962      0.91509268    -709.75521      184.35559    
    294000   289.57352     -609.59145     -414.61984      0.90365339    -586.38941      171.76957    
    295000   287.79707     -3572.6158     -865.02066      0.90444507    -1035.7365      170.71581    
    296000   302.92381     -361.02604     -313.15966      0.90949349    -492.84837      179.68871    
    297000   322.31413      3974.785       162.60391      0.90666615    -28.586773      191.19068    
    298000   301.82648      4082.4176      164.01191      0.91383821    -15.025883      179.03779    
    299000   314.53593     -4028.7199     -1040.8171      0.90970684    -1227.3939      186.5768     
SHAKE stats (type/ave/delta/count) on step 300000
Bond:   1   0.999991  1.50278e-06      200
Angle:  1   109.47    0.000119208      100
    300000   305.2064      -798.66068     -319.93719      0.90409608    -500.97989      181.0427     
    300042   293.62649      3241.3732      6.4556771      0.90596128    -167.71804      174.17371    
Loop time of 51.9022 on 8 procs for 200000 steps with 300 atoms

Performance: 332.934 ns/day, 0.072 hours/ns, 3853.401 timesteps/s, 1.156 Matom-step/s
96.1% CPU use with 8 MPI tasks x 1 OpenMP threads

MPI task timing breakdown:
Section |  min time  |  avg time  |  max time  |%varavg| %total
---------------------------------------------------------------
Pair    | 24.332     | 25.98      | 28.269     |  27.0 | 50.06
Bond    | 0.025625   | 0.028047   | 0.03525    |   1.7 |  0.05
Neigh   | 1.9887     | 1.9906     | 1.9917     |   0.1 |  3.84
Comm    | 13.002     | 15.23      | 16.948     |  35.1 | 29.34
Output  | 0.0035305  | 0.0036631  | 0.0044289  |   0.5 |  0.01
Modify  | 8.0518     | 8.1053     | 8.1546     |   1.1 | 15.62
Other   |            | 0.5643     |            |       |  1.09

Nlocal:           37.5 ave          43 max          30 min
Histogram: 1 0 1 1 1 0 1 0 1 2
Nghost:         2832.5 ave        2881 max        2781 min
Histogram: 1 0 0 3 0 0 2 1 0 1
Neighs:        12234.1 ave       14085 max        9522 min
Histogram: 1 0 1 0 1 1 0 1 2 1

Total # of neighbors = 97873
Ave neighs/atom = 326.24333
Ave special neighs/atom = 2
Neighbor list builds = 6483
Dangerous builds = 0

# DUMP TRAJECTORY
dump            prod all custom 200 spce.lammpstrj id type xu yu zu
dump_modify     prod sort  id

# production run
timestep 2.0
run 200000
Generated 0 of 1 mixed pair_coeff terms from geometric mixing rule
SHAKE stats (type/ave/delta/count) on step 300042
Bond:   1   0.999801  1.1103e-06       200
Angle:  1   109.47    8.85553e-05      100
Per MPI rank memory allocation (min/avg/max) = 7.54 | 7.541 | 7.541 Mbytes
   Step          Temp          Press          TotEng        Density         PotEng         KinEng    
    300042   293.62649      2675.9599      6.4556771      0.90596128    -167.71804      174.17371    
    301000   298.12441      3697.6648      300.95724      0.91058141     124.11544      176.84179    
    302000   317.48213      1110.0251      7.8335411      0.9138792     -180.49089      188.32443    
    303000   329.36422      5407.1039      615.36007      0.90959859     419.98741      195.37266    
    304000   308.05372      2018.0663     -221.59907      0.91315107    -404.33075      182.73168    
    305000   294.50466     -1345.7301     -713.47649      0.91511419    -888.17112      174.69463    
    306000   334.10998      387.64287     -392.67132      0.91417263    -590.85908      198.18776    
    307000   318.15133      1179.8462     -51.483282      0.90034853    -240.20467      188.72139    
    308000   298.72687     -2299.5812     -376.0131       0.91164314    -553.21226      177.19916    
    309000   298.2612       2882.314       328.68583      0.91051785     151.76289      176.92294    
SHAKE stats (type/ave/delta/count) on step 310000
Bond:   1   0.999885  1.56432e-05      200
Angle:  1   109.47    0.00152172       100
    310000   311.11787      985.3034      -319.1062       0.92036657    -503.65547      184.54927    
    311000   345.86345      5177.2516      411.05536      0.91733516     205.89566      205.1597     
    312000   287.52367     -2814.6925     -853.37534      0.91277969    -1023.929       170.55364    
    313000   317.83871      247.24698     -73.873168      0.91995047    -262.40911      188.53595    
    314000   298.83982      1722.3533      60.594494      0.9189256     -116.67167      177.26617    
    315000   284.63525      728.85412      166.71347      0.9102092     -2.1268095      168.84028    
    316000   288.67426      1805.3277      142.94093      0.91290485    -28.295209      171.23614    
    317000   295.0298       3444.183       141.69855      0.91260531    -33.307579      175.00613    
    318000   271.81613     -1687.7853     -508.58968      0.90773575    -669.8259       161.23622    
    319000   331.43121      743.53146     -181.51596      0.91468012    -378.11472      196.59876    
SHAKE stats (type/ave/delta/count) on step 320000
Bond:   1   0.999908  6.21833e-06      200
Angle:  1   109.47    0.000546472      100
    320000   301.28959      5004.7976      432.5847       0.90565785     253.86538      178.71932    
    321000   320.27839     -890.87221     -382.49022      0.91048417    -572.47334      189.98312    
    322000   296.27247      3759.3275      302.85878      0.91666175     127.11553      175.74326    
    323000   292.685        3389.4841      238.91833      0.92302662     65.303089      173.61524    
    324000   285.31379     -1050.4232     -762.41095      0.91407317    -931.65373      169.24278    
    325000   285.18877     -1241.9966     -671.34944      0.92064429    -840.51806      169.16862    
    326000   325.63822      8932.3311      1065.0106      0.9102507      871.84814      193.16247    
    327000   282.8117      -4341.1065     -971.94949      0.91039347    -1139.7081      167.75858    
    328000   305.11821      1395.1778     -117.44497      0.91513436    -298.43536      180.99039    
    329000   309.07741      2146.7192      246.54639      0.90753648     63.207486      183.33891    
SHAKE stats (type/ave/delta/count) on step 330000
Bond:   1   0.999797  5.34187e-06      200
Angle:  1   109.47    0.000502358      100
    330000   268.58985     -3002.4182     -841.76772      0.90641441    -1001.0902      159.32245    
    331000   287.98079      1439.7168     -222.30256      0.90797844    -393.12736      170.82479    
    332000   270.28252     -4469.6353     -856.51127      0.91192805    -1016.8378      160.32651    
    333000   311.97913      2563.4531     -121.00387      0.92049745    -306.06402      185.06015    
    334000   301.91273     -3066.7972     -890.25752      0.91413715    -1069.3465      179.08895    
    335000   265.81847      2225.7183      103.93885      0.91214641    -53.739673      157.67852    
    336000   322.06029     -2559.0747     -517.02566      0.91305805    -708.06577      191.04011    
    337000   257.66989      3085.0596      163.74494      0.91419431     10.900009      152.84493    
    338000   298.78152      1980.6437     -261.4249       0.91505346    -438.65648      177.23158    
    339000   306.77024      688.44827     -413.51086      0.91974307    -595.48119      181.97034    
SHAKE stats (type/ave/delta/count) on step 340000
Bond:   1   0.999159  7.51111e-06      200
Angle:  1   109.47    0.000787702      100
    340000   277.23155      3939.594       116.00273      0.91776167    -48.44582       164.44855    
    341000   290.94083      4216.1048      119.00098      0.91980682    -53.579651      172.58063    
    342000   299.56517      1708.3187     -159.37313      0.91557338    -337.06955      177.69643    
    343000   295.36422     -4875.0809     -1070.0621      0.909961      -1245.2666      175.2045     
    344000   299.91057      4541.5288      218.38353      0.91647423     40.482211      177.90131    
    345000   321.17105     -2747.4509     -883.0074       0.92363848    -1073.52        190.51263    
    346000   315.20669      5915.0997      619.98496      0.91671688     433.01028      186.97468    
    347000   314.44976      4628.7548      585.26437      0.92278132     398.73869      186.52568    
    348000   292.32358      3430.1744      253.8518       0.91699966     80.450949      173.40085    
    349000   295.47157     -3023.207      -726.87992      0.9165979     -902.1481       175.26818    
SHAKE stats (type/ave/delta/count) on step 350000
Bond:   1   1.00009   1.41818e-05      200
Angle:  1   109.47    0.00107574       100
    350000   317.3205      -2707.5612     -565.68514      0.90755227    -753.91369      188.22855    
    351000   306.70281      3424.7179      294.27702      0.91394379     112.34668      181.93034    
    352000   309.94442      227.21382     -46.888284      0.91345491    -230.74149      183.85321    
    353000   312.63523     -924.64365     -416.92592      0.91278842    -602.37527      185.44934    
    354000   301.92312     -4285.5432     -825.16306      0.91144904    -1004.2582      179.09512    
    355000   307.05078     -881.60891     -319.45934      0.91277952    -501.59608      182.13675    
    356000   311.91811     -2924.8201     -660.28744      0.90600493    -845.3114       185.02396    
    357000   281.16716     -2018.5578     -487.00822      0.90926572    -653.79129      166.78307    
    358000   295.05236     -6338.1114     -1254.3534      0.91571633    -1429.3729      175.01951    
    359000   316.40998      3372.1906      197.84306      0.92127462     10.15461       187.68845    
SHAKE stats (type/ave/delta/count) on step 360000
Bond:   1   1.00095   1.01107e-05      200
Angle:  1   109.47    0.000715097      100
    360000   300.95882     -9918.6225     -1315.0996      0.92330842    -1493.6227      178.52312    
    361000   297.6549       262.12496     -271.15943      0.92599534    -447.72271      176.56329    
    362000   306.83246      5243.3527      127.35578      0.92940717    -54.651472      182.00725    
    363000   305.94259      5163.6958      385.00524      0.93051652     203.52585      181.47939    
    364000   300.9295      -4814.4708     -807.16513      0.92392405    -985.67086      178.50572    
    365000   275.87814     -3944.6253     -811.45306      0.92366206    -975.09879      163.64573    
    366000   338.32134      690.25359      24.223729      0.92846922    -176.46213      200.68586    
    367000   284.69601      4315.9535      384.72944      0.93355538     215.85312      168.87632    
    368000   266.22071     -2027.479      -419.35508      0.92547917    -577.2722       157.91712    
    369000   284.02134     -3860.8795     -1035.2284      0.92988243    -1203.7045      168.47612    
SHAKE stats (type/ave/delta/count) on step 370000
Bond:   1   0.999991  6.45243e-06      200
Angle:  1   109.47    0.000469626      100
    370000   306.35255     -275.93509     -239.8544       0.92891378    -421.57697      181.72258    
    371000   293.70982      3728.1065      363.97183      0.92785082     189.74869      174.22314    
    372000   287.1975      -6004.5023     -1113.832       0.92670102    -1284.1921      170.36016    
    373000   310.97635     -1546.9805     -334.74332      0.92079158    -519.20864      184.46532    
    374000   315.27005     -585.37571     -264.25164      0.92513939    -451.2639       187.01227    
    375000   328.22327      2313.3482      21.256579      0.93284587    -173.43929      194.69587    
    376000   285.99404      6650.0902      781.3152       0.92687166     611.66891      169.64629    
    377000   262.94514      750.64187     -133.28195      0.91932591    -289.25606      155.97412    
    378000   269.63255      3777.5395      468.21229      0.92974347     308.27133      159.94096    
    379000   303.72918     -8550.3426     -1118.8592      0.92255429    -1299.0257      180.16644    
SHAKE stats (type/ave/delta/count) on step 380000
Bond:   1   0.999981  1.08259e-05      200
Angle:  1   109.47    0.00118068       100
    380000   328.94501     -2160.8782     -434.33542      0.92459639    -629.45941      195.12399    
    381000   312.14779     -5359.0258     -902.91788      0.9267543     -1088.0781      185.1602     
    382000   270.89258      1352.7893     -56.598244      0.91959788    -217.28663      160.68838    
    383000   297.49845      9580.2658      1108.6451      0.92932609     932.17461      176.47049    
    384000   324.66228     -7629.719      -1468.9107      0.92354672    -1661.4942      192.58356    
    385000   317.91436     -6130.6016     -1005.255       0.9145458     -1193.8358      188.58082    
    386000   303.1439      -2630.5041     -468.23601      0.9109611     -648.05527      179.81926    
    387000   275.60507     -3299.8744     -707.57341      0.9210797     -871.05715      163.48375    
    388000   286.24126      434.26626     -296.57189      0.92341264    -466.36483      169.79294    
    389000   313.46559     -2062.7363     -564.97111      0.92816356    -750.913        185.9419     
SHAKE stats (type/ave/delta/count) on step 390000
Bond:   1   0.999515  1.45379e-05      200
Angle:  1   109.47    0.00170592       100
    390000   298.77785      2475.2743     -51.055504      0.92404764    -228.28491      177.2294     
    391000   327.18797      3388.3986      93.82497       0.92858272    -100.25678      194.08175    
    392000   310.45928     -2868.6472     -635.16604      0.92607708    -819.32465      184.15861    
    393000   281.53177     -744.79353     -513.00046      0.92090742    -679.99981      166.99935    
    394000   324.05231     -4948.8687     -1332.2077      0.91825166    -1524.4295      192.22174    
    395000   287.0661       591.87826     -227.32193      0.91934284    -397.60414      170.28222    
    396000   302.89237     -4781.7441     -1141.9877      0.91296053    -1321.6577      179.67006    
    397000   291.80639      1726.3269     -3.3577889      0.92921903    -176.45185      173.09406    
    398000   291.93479     -1603.8422     -546.10583      0.92508996    -719.27606      173.17023    
    399000   311.5692      -3381.6898     -754.23496      0.91958092    -939.05196      184.81699    
SHAKE stats (type/ave/delta/count) on step 400000
Bond:   1   0.999785  4.1824e-06       200
Angle:  1   109.47    0.000370911      100
    400000   297.43176     -89.610109     -143.04923      0.91794971    -319.48015      176.43093    
    401000   297.59643     -5812.9109     -1126.868       0.91684093    -1303.3967      176.52861    
    402000   315.12616      1604.5605     -60.348903      0.92279546    -247.27582      186.92692    
    403000   291.56356     -2086.9143     -594.19486      0.92414394    -767.14489      172.95002    
    404000   281.91083      259.82537     -98.191554      0.92874288    -265.41576      167.22421    
    405000   329.89239     -612.07889     -540.69579      0.9247107     -736.38175      195.68597    
    406000   292.83564     -3958.0269     -606.42288      0.91653177    -780.12748      173.7046     
    407000   284.20551     -2297.9419     -802.15238      0.92411367    -970.73775      168.58537    
    408000   301.4694       3417.1329     -134.54113      0.930829      -313.36711      178.82598    
    409000   277.39371      3332.9977      267.82468      0.92829379     103.27995      164.54473    
SHAKE stats (type/ave/delta/count) on step 410000
Bond:   1   0.999889  4.58324e-06      200
Angle:  1   109.47    0.000437977      100
    410000   315.04102     -3592.2051     -1054.817       0.92414837    -1241.6935      186.87641    
    411000   301.92095      5865.7576      492.00946      0.92768567     312.91563      179.09383    
    412000   277.89857     -1754.458      -496.78816      0.92460235    -661.63236      164.84421    
    413000   304.64702      750.84827     -86.772638      0.92843194    -267.48352      180.71089    
    414000   281.18058      2418.3555     -222.25107      0.93291122    -389.0421       166.79103    
    415000   304.56477     -529.73386     -590.12314      0.92507664    -770.78523      180.6621     
    416000   305.93545     -2598.6162     -1015.2608      0.9263154     -1196.736       181.47516    
    417000   295.93603     -1469.1986     -588.561        0.91778609    -764.10469      175.54369    
    418000   309.82384      3404.4886      214.47303      0.92601573     30.691349      183.78168    
    419000   321.68764     -4995.8879     -1062.7129      0.9229344     -1253.532       190.81906    
SHAKE stats (type/ave/delta/count) on step 420000
Bond:   1   0.999245  4.05081e-06      200
Angle:  1   109.47    0.000443658      100
    420000   293.24036      2865.1468     -203.20685      0.92713102    -377.15152      173.94467    
    421000   268.93419     -4180.4751     -943.10146      0.91039446    -1102.6282      159.52671    
    422000   300.51137     -445.5413      -280.2464       0.9222307     -458.50409      178.25769    
    423000   303.12748     -6631.9547     -1429.0534      0.90803565    -1608.8629      179.80952    
    424000   292.26766     -384.69543     -537.16028      0.92200532    -710.52796      173.36768    
    425000   285.72437     -2276.8378     -688.88959      0.92417811    -858.37592      169.48633    
    426000   312.3462       5845.8611      488.1157       0.92377457     302.8378       185.27789    
    427000   299.7066      -343.0808      -646.41619      0.91071884    -824.19651      177.78032    
    428000   248.7536       4299.8819      273.49847      0.92119655     125.94251      147.55596    
    429000   312.11874      2261.4681     -321.96795      0.92164273    -507.11092      185.14297    
SHAKE stats (type/ave/delta/count) on step 430000
Bond:   1   1.00127   1.38575e-05      200
Angle:  1   109.47    0.000763582      100
    430000   272.74667     -1756.9965     -526.69608      0.91431874    -688.48428      161.7882     
    431000   289.43502     -4462.6        -983.58593      0.91153379    -1155.2733      171.68741    
    432000   292.98955      4388.581       370.189        0.91612682     196.39311      173.79589    
    433000   288.30311     -4339.7365     -839.05679      0.91256285    -1010.0728      171.01598    
    434000   346.51892      3876.7493      86.977789      0.90892296    -118.57072      205.54851    
    435000   304.27548     -4643.111      -1227.0085      0.91272425    -1407.499       180.49049    
    436000   295.77516      550.57895     -442.21053      0.91346366    -617.65879      175.44827    
    437000   331.69115     -2941.2817     -703.31496      0.90963916    -900.06792      196.75295    
    438000   290.85795      1480.9964     -24.450822      0.91829275    -196.98229      172.53147    
    439000   307.11999     -3625.6141     -918.85588      0.92161569    -1101.0337      182.1778     
SHAKE stats (type/ave/delta/count) on step 440000
Bond:   1   0.99925   9.32176e-06      200
Angle:  1   109.47    0.000894226      100
    440000   303.04114      2731.8394     -68.956452      0.92248447    -248.71476      179.75831    
    441000   314.45684     -139.80877     -199.86157      0.92119502    -386.39146      186.52989    
    442000   278.04982     -2142.2363     -576.07377      0.9130936     -741.00769      164.93393    
    443000   300.99604     -5179.0887     -885.08273      0.91458339    -1063.6279      178.54519    
    444000   290.88185     -3364.6143     -725.21505      0.91079128    -897.7607       172.54565    
    445000   286.00034      3641.2749      210.72099      0.91453175     41.070962      169.65003    
    446000   304.39458     -82.011721     -300.03929      0.91758345    -480.60043      180.56114    
    447000   279.60174     -8298.0296     -1524.5943      0.91462373    -1690.4488      165.85449    
    448000   286.98097      4860.3042      275.43853      0.92037819     105.20682      170.23172    
    449000   293.09437      8817.0369      1051.9584      0.92670897     878.10035      173.85807    
SHAKE stats (type/ave/delta/count) on step 450000
Bond:   1   0.999849  1.45749e-05      200
Angle:  1   109.47    0.00156876       100
    450000   286.02357     -273.53661     -276.50286      0.91485441    -446.16667      169.66381    
    451000   288.89378      4297.58        462.61641      0.92007592     291.25005      171.36636    
    452000   301.58225     -3634.8681     -819.6541       0.91491827    -998.54702      178.89292    
    453000   281.23148     -649.48288     -394.63337      0.91413522    -561.45459      166.82123    
    454000   303.24436      953.8792      -121.50032      0.91232066    -301.37917      179.87885    
    455000   322.07037      447.56783     -196.01649      0.91612022    -387.06258      191.04609    
    456000   289.67717      7486.5038      774.22728      0.9177544      602.39623      171.83105    
    457000   296.93042     -6979.7073     -1001.6405      0.91439475    -1177.7741      176.13354    
    458000   271.77376      6969.4764      709.11196      0.9234099      547.90087      161.21109    
    459000   310.96862     -6684.8847     -1003.295       0.9147462     -1187.7557      184.46074    
SHAKE stats (type/ave/delta/count) on step 460000
Bond:   1   0.998718  1.81864e-05      200
Angle:  1   109.47    0.00133989       100
    460000   299.33276      9999.051       919.34189      0.92624693     741.78332      177.55856    
    461000   307.39985     -3641.8145     -862.92482      0.91895462    -1045.2686      182.34381    
    462000   278.90006      75.379256     -106.46487      0.91329498    -271.90314      165.43827    
    463000   288.05937      1590.0403      77.180403      0.91407203    -93.691001      170.8714     
    464000   297.80768      463.38992     -444.3397       0.91605053    -620.99362      176.65392    
    465000   291.36535      4050.8893      454.31154      0.91582722     281.4791       172.83245    
    466000   280.18849      51.796346     -21.027413      0.91624384    -187.22996      166.20255    
    467000   298.34079      2501.7827      28.214721      0.91558442    -148.75543      176.97015    
    468000   289.00125      1758.4992     -151.85145      0.92133608    -323.28156      171.43011    
    469000   280.06237      3076.0951      324.15218      0.91791694     158.02445      166.12773    
SHAKE stats (type/ave/delta/count) on step 470000
Bond:   1   0.999233  1.57245e-05      200
Angle:  1   109.47    0.000939558      100
    470000   318.43133      7014.5776      607.22183      0.92695292     418.33435      188.88748    
    471000   289.16029      4469.3935      589.01643      0.92174842     417.49198      171.52445    
    472000   292.35313     -3097.543      -683.24004      0.92477891    -856.65842      173.41838    
    473000   300.91216     -804.91104     -412.05966      0.91624408    -590.5551       178.49544    
    474000   311.38772     -8935.3796     -1673.8054      0.9184252     -1858.5147      184.70934    
    475000   317.35463      275.54248     -209.16333      0.91913292    -397.41213      188.2488     
    476000   318.85516      544.35906     -471.00498      0.92435238    -660.14387      189.13889    
    477000   290.65464      1599.3073      37.774595      0.92710656    -134.63628      172.41087    
    478000   304.67694     -3302.168      -778.07043      0.91711219    -958.79906      180.72863    
    479000   334.91368     -2074.9797     -560.54109      0.91800475    -759.20559      198.6645     
SHAKE stats (type/ave/delta/count) on step 480000
Bond:   1   0.999292  4.57141e-06      200
Angle:  1   109.47    0.000407003      100
    480000   281.73517      2577.5182      243.67108      0.92230447     76.551077      167.12001    
    481000   300.96299      519.52981      100.62392      0.9196199     -77.901667      178.52559    
    482000   306.419        4062.5101      464.77396      0.92394196     283.01198      181.76199    
    483000   268.89292      4588.9716      517.82247      0.91965771     358.32025      159.50223    
    484000   283.71181      2516.6155      362.68887      0.92403539     194.39636      168.29251    
    485000   306.96481      2807.764       448.16893      0.91937492     266.08317      182.08575    
    486000   289.23813      147.66151     -79.818887      0.91790669    -251.38951      171.57062    
    487000   273.6383       2049.5368      45.82467       0.91532606    -116.49243      162.3171     
    488000   281.40475     -8612.0711     -1447.087       0.91680636    -1614.011       166.92401    
    489000   294.00114     -1468.4993     -254.50028      0.91373717    -428.89623      174.39595    
SHAKE stats (type/ave/delta/count) on step 490000
Bond:   1   0.999762  4.65367e-06      200
Angle:  1   109.47    0.000432495      100
    490000   327.85363     -7103.5561     -1273.3157      0.91234887    -1467.7923      194.47661    
    491000   328.61281     -2949.5871     -798.35447      0.91513312    -993.28141      194.92694    
    492000   247.75584      3489.4838      358.97951      0.9246036      212.0154       146.96411    
    493000   285.63619      851.12466     -137.56364      0.92345938    -306.99766      169.43402    
    494000   289.22141      2874.1155      114.12844      0.92176162    -57.432261      171.5607     
    495000   270.89589     -1562.0962     -583.87973      0.91398077    -744.57008      160.69035    
    496000   316.872        4334.477       409.0513       0.91971696     221.08879      187.96251    
    497000   306.32768     -1702.753      -546.13327      0.91603865    -727.84109      181.70782    
    498000   309.99932     -2807.3261     -421.33284      0.91428575    -605.21861      183.88577    
    499000   296.48786     -2885.6499     -617.14941      0.91908562    -793.02043      175.87102    
SHAKE stats (type/ave/delta/count) on step 500000
Bond:   1   0.999604  1.23327e-05      200
Angle:  1   109.47    0.00099961       100
    500000   294.74315     -651.84758     -216.41378      0.92113035    -391.24988      174.8361     
    500042   309.31476     -81.489846     -356.83194      0.91974567    -540.31164      183.4797     
Loop time of 55.1366 on 8 procs for 200000 steps with 300 atoms

Performance: 626.806 ns/day, 0.038 hours/ns, 3627.352 timesteps/s, 1.088 Matom-step/s
96.5% CPU use with 8 MPI tasks x 1 OpenMP threads

MPI task timing breakdown:
Section |  min time  |  avg time  |  max time  |%varavg| %total
---------------------------------------------------------------
Pair    | 25.18      | 26.868     | 28.905     |  28.2 | 48.73
Bond    | 0.025545   | 0.027964   | 0.033716   |   1.4 |  0.05
Neigh   | 3.7943     | 3.8036     | 3.808      |   0.2 |  6.90
Comm    | 13.513     | 15.548     | 17.298     |  37.1 | 28.20
Output  | 0.095838   | 0.10817    | 0.12267    |   2.9 |  0.20
Modify  | 8.1381     | 8.1937     | 8.2236     |   1.0 | 14.86
Other   |            | 0.5878     |            |       |  1.07

Nlocal:           37.5 ave          47 max          33 min
Histogram: 3 1 1 0 1 0 0 1 0 1
Nghost:        2843.38 ave        2888 max        2809 min
Histogram: 3 1 0 0 0 0 1 2 0 1
Neighs:        12445.4 ave       15878 max       10943 min
Histogram: 3 2 0 1 0 0 0 1 0 1

Total # of neighbors = 99563
Ave neighs/atom = 331.87667
Ave special neighs/atom = 2
Neighbor list builds = 12162
Dangerous builds = 0
write_data spce.data nocoeff
System init for write_data ...
Generated 0 of 1 mixed pair_coeff terms from geometric mixing rule
Total wall time: 0:02:10
